63
125
87	20
86	16
85	10
84	13
83	16
82	17
81	17
80	14
79	18
78	18
77	11
76	18
75	12
74	14
73	10
72	10
71	13
70	11
69	14
68	18
67	16
66	18
65	12
64	14
63	15
62	17
61	19
60	19
59	12
58	9
57	13
56	14
55	21
54	22
53	23
52	15
51	13
50	14
49	16
48	17
47	17
46	15
45	15
44	17
43	16
42	20
41	16
40	21
39	17
38	11
37	20
36	21
35	16
34	20
33	12
32	20
31	12
30	16
29	21
28	14
27	13
26	17
25	24
